Route #1: 24 95 73 53 33 32
Route #2: 44 67 88 40
Route #3: 20 41 22 15
Route #4: 14 49 6 37 87
Route #5: 39 10 18
Route #6: 82 60 59
Route #7: 31 46 35
Route #8: 19 97 27
Route #9: 25 65 78 42 28
Route #10: 86 9 92
Route #11: 81 51 83
Route #12: 100 61 23
Route #13: 89 98 99 62 71
Route #14: 21 56 94 80
Route #15: 5 12 58
Route #16: 57 72 36 29 43 45 2 7
Route #17: 79 11 85 30
Route #18: 74 13 4
Route #19: 38 47 26 48 96 64 34
Route #20: 93 75
Route #21: 63 77 3
Route #22: 66 84 90 68
Route #23: 76 55 16 69
Route #24: 52 91 50
Route #25: 17 8
Route #26: 1 70 54
Cost 27591.0000
Time 16.0002